000 000 000 000 000 000 000 000 -99 -99 -99 -99 -99 -99 000 -99 -99 -99 -99 -99 -99 -99 -99 000 000 000 -99 -99 -99 -99 -99
000 000 000 000 000 000 000 000 000 -99 -99 -99 -99 -99 000 000 -99 -99 -99 -99 -99 -99 -99 000 000 000 -99 -99 -99 -99 -99
000 000 000 000 000 000 000 000 000 -99 -99 -99 -99 -99 000 000 -99 -99 -99 -99 -99 -99 000 000 000 000 -99 -99 -99 -99 -99
000 000 000 000 000 000 000 000 000 -99 -99 -99 -99 -99 -99 000 -99 -99 -99 -99 -99 -99 000 000 000 000 -99 -99 -99 -99 -99
000 000 000 000 000 000 000 000 000 000 -99 -99 -99 -99 -99 000 000 -99 -99 -99 000 000 000 000 000 000 -99 -99 -99 -99 -99
000 000 000 000 000 000 000 000 000 000 000 -99 000 -99 -99 000 000 000 -99 -99 000 000 000 000 000 -99 -99 -99 -99 -99 -99
000 000 000 000 000 000 000 000 000 000 000 -99 -99 000 000 -99 000 000 -99 -99 000 000 000 -99 000 000 -99 -99 -99 -99 -99
000 000 000 000 000 000 000 000 000 000 000 -99 -99 -99 -99 -99 000 000 000 -99 000 000 000 -99 000 000 -99 -99 -99 -99 -99
000 000 000 000 000 000 000 000 000 000 000 000 -99 -99 -99 000 000 000 000 -99 000 -99 000 -99 000 -99 -99 -99 -99 -99 -99
000 000 000 000 000 000 000 000 000 000 000 000 -99 -99 -99 000 000 000 000 000 000 000 -99 -99 000 000 -99 -99 -99 000 -99
000 000 000 000 000 000 000 000 000 000 000 000 000 -99 000 000 000 000 000 000 000 000 -99 -99 000 000 -99 -99 -99 000 -99
000 000 000 000 000 000 000 000 000 000 000 000 000 000 000 000 000 000 000 000 000 000 -99 -99 000 000 000 000 -99 -99 -99
000 000 000 000 000 000 000 000 000 000 000 000 000 000 000 000 000 000 000 000 000 000 -99 -99 000 000 000 000 -99 -99 -99
000 000 000 000 000 000 000 000 000 000 000 000 000 000 000 000 000 000 000 000 000 000 -99 -99 000 000 000 000 -99 -99 -99
000 000 000 000 000 000 000 000 000 000 -99 000 000 000 000 000 000 000 -99 -99 000 000 -99 000 000 000 000 000 -99 -99 -99
000 000 000 000 000 000 000 000 000 000 -99 000 000 000 000 000 000 000 000 000 000 000 -99 000 000 000 000 000 -99 -99 -99
000 000 000 000 000 000 000 000 000 000 000 000 000 000 000 000 000 000 000 000 000 000 000 000 000 -99 -99 -99 000 -99 -99
000 000 000 000 000 000 000 000 000 000 000 -99 000 000 000 000 000 000 000 000 000 000 000 000 000 -99 -99 -99 -99 -99 -99
000 000 000 000 -99 000 000 000 000 000 000 000 000 000 000 000 000 000 000 000 000 000 000 -99 -99 -99 -99 -99 -99 -99 -99
000 000 000 000 000 000 000 000 000 000 000 000 000 000 000 000 000 000 000 000 000 000 000 -99 -99 -99 -99 -99 -99 -99 -99
000 000 000 000 000 000 000 000 000 000 000 000 000 000 000 000 000 000 000 000 000 000 000 -99 -99 -99 -99 -99 -99 -99 -99
000 000 000 000 000 000 000 000 000 000 000 000 000 000 000 000 000 000 000 000 000 000 000 -99 -99 -99 -99 -99 -99 -99 -99
000 000 000 000 000 000 000 000 000 000 000 000 000 000 000 000 000 000 000 000 000 000 000 -99 -99 -99 -99 -99 -99 -99 -99
000 000 000 000 000 000 000 000 000 000 000 000 000 000 001 000 000 000 000 000 000 000 000 -99 -99 -99 -99 -99 -99 -99 000
000 000 000 000 000 000 000 000 000 000 000 000 000 000 001 000 000 000 000 000 000 000 000 -99 -99 -99 -99 -99 -99 -99 000
000 000 000 000 000 000 000 000 000 000 000 000 000 000 000 000 000 000 000 000 000 000 000 -99 -99 -99 -99 -99 -99 -99 000
000 000 000 000 000 000 000 000 000 000 000 000 000 000 001 000 000 000 000 000 000 000 000 -99 -99 -99 -99 -99 -99 -99 000
000 000 000 000 000 000 000 000 000 000 000 000 000 000 000 000 000 000 000 000 000 000 000 -99 -99 -99 -99 -99 -99 -99 000
-99 000 000 000 000 000 000 000 000 000 000 000 000 001 000 000 000 000 000 000 000 000 -99 -99 -99 -99 -99 -99 -99 -99 000
000 000 000 000 000 000 000 000 000 000 000 000 001 000 000 000 000 000 000 000 000 000 -99 -99 001 001 000 -99 -99 -99 -99
000 000 000 000 000 000 000 000 000 000 000 000 001 000 000 000 000 000 000 000 000 000 -99 001 003 001 001 -99 -99 -99 000
000 000 000 000 000 000 000 000 000 000 000 000 000 000 000 000 000 000 000 000 000 000 000 000 002 001 002 021 011 001 000
000 000 000 000 000 000 000 000 000 000 000 001 000 000 000 000 000 000 000 000 000 000 000 000 000 000 -99 002 001 000 000
-99 000 000 000 000 000 000 000 000 000 001 000 000 000 000 000 001 000 000 000 000 000 000 000 000 000 001 001 001 000 000
-99 000 000 000 000 000 000 000 000 000 001 000 001 000 001 001 001 000 000 000 000 000 000 000 000 000 001 001 001 000 000
000 000 000 000 000 000 000 000 000 000 000 000 001 001 000 000 000 000 000 000 000 000 000 000 000 000 001 000 000 000 000
000 000 -99 -99 000 000 000 000 000 000 001 001 001 001 000 001 000 000 000 -99 000 000 000 000 000 000 000 001 000 000 000
000 000 -99 -99 000 000 000 000 000 000 001 001 002 001 001 001 001 000 000 -99 000 000 000 000 000 000 001 001 000 000 000
000 000 000 -99 000 000 000 000 000 000 001 001 002 002 002 002 001 001 000 000 000 000 000 000 000 000 000 001 000 000 000
000 000 000 000 000 000 000 000 000 000 000 002 002 001 002 002 002 001 000 000 000 000 000 000 000 000 001 001 001 000 000
-99 000 000 000 000 000 000 000 000 000 001 001 001 002 004 002 002 002 001 000 000 000 000 000 000 001 001 001 001 000 001
000 000 -99 -99 000 000 000 000 000 001 001 002 001 001 001 002 002 004 003 001 000 000 000 000 000 000 000 001 000 001 001
-99 -99 -99 -99 000 000 000 001 001 002 002 003 001 002 004 002 003 006 015 008 000 000 000 000 000 000 000 001 001 002 001
-99 -99 -99 -99 000 000 000 000 001 002 003 003 002 004 004 004 005 015 021 006 000 000 000 000 000 000 000 001 002 003 002
-99 -99 -99 -99 000 000 000 000 001 002 001 002 002 003 005 007 008 012 025 004 000 000 000 000 000 000 000 001 003 005 003
-99 -99 -99 -99 -99 -99 000 000 000 000 001 001 001 002 001 004 006 013 014 002 000 000 000 000 000 000 000 001 006 008 003
-99 -99 -99 -99 -99 -99 -99 000 000 000 000 000 000 001 001 003 005 010 010 003 000 000 000 000 000 000 000 002 012 008 005
-99 -99 -99 -99 -99 -99 -99 -99 -99 000 -99 000 000 001 001 004 005 010 017 007 001 000 000 000 000 000 001 002 007 008 007
-99 -99 -99 -99 -99 -99 -99 -99 -99 -99 -99 000 000 000 001 001 005 015 009 002 000 000 000 000 000 000 000 001 006 012 028
000 000 000 -99 -99 -99 -99 -99 -99 000 -99 -99 000 000 000 000 002 004 002 001 000 000 000 -99 000 000 000 000 001 011 021
000 000 000 -99 -99 -99 -99 -99 000 001 -99 -99 000 000 000 000 000 000 000 000 000 000 000 -99 -99 000 000 000 001 004 008
000 000 -99 -99 -99 -99 -99 -99 000 -99 -99 -99 000 000 000 000 000 000 000 000 000 000 -99 -99 -99 000 -99 -99 000 001 004
000 000 -99 -99 -99 -99 -99 -99 -99 -99 -99 -99 -99 -99 -99 -99 000 000 000 000 000 000 -99 -99 000 -99 -99 -99 000 000 002
000 000 -99 -99 -99 -99 -99 -99 -99 -99 -99 -99 -99 -99 -99 -99 000 000 -99 -99 000 -99 -99 -99 -99 -99 -99 -99 000 001 002
000 -99 -99 -99 -99 -99 -99 -99 -99 -99 -99 -99 -99 -99 -99 000 000 -99 -99 -99 000 -99 -99 -99 -99 -99 -99 -99 000 001 001
